 vasp.5.4.4.18Apr17-6-g9f103f2a35 (build Dec 28 2018 10:32:06) complex

 executed on             LinuxIFC date 2021.04.06  20:50:41

 INCAR:
 POTCAR:    PAW_PBE C 08Apr2002

 POTCAR:    PAW_PBE C 08Apr2002
   VRHFIN =C: s2p2

   TITEL  = PAW_PBE C 08Apr2002
   POMASS =   12.011; ZVAL   =    4.000    mass and valenz
   ENMAX  =  400.000; ENMIN  =  300.000 eV

  PAW_PBE C 08Apr2002                   :

 POSCAR: Graphene
  positions in direct lattice
  velocities in cartesian coordinates
 exchange correlation table for  LEXCH =        8
   RHO(1)=    0.500       N(1)  =     2000
   RHO(2)=  100.500       N(2)  =     4000

 ion  position               nearest neighbor table
   1  0.333  0.667  0.500-   2 1.43   2 1.43   2 1.43
   2  0.667  0.333  0.500-   1 1.43   1 1.43   1 1.43

  LATTYP: Found a hexagonal cell.
 ALAT       =     2.4682340515
 C/A-ratio  =    12.1524536957

  Lattice vectors:

 A1 = (   2.4682341087,   0.0000000000,   0.0000000000)
 A2 = (  -1.2341170932,   2.1375533970,   0.0000000000)
 A3 = (   0.0000000000,   0.0000000000,  29.9951000214)

Analysis of symmetry for initial positions (statically):
 Subroutine PRICEL returns:
 Original cell was already a primitive cell.

 Routine SETGRP: Setting up the symmetry group for a
 hexagonal supercell.

 Subroutine GETGRP returns: Found 24 space group operations
 (whereof 24 operations were pure point group operations)
 out of a pool of 24 trial point group operations.

The static configuration has the point symmetry D_6h.

Analysis of symmetry for dynamics (positions and initial velocities):
 Subroutine PRICEL returns:
 Original cell was already a primitive cell.

[...]

The dynamic configuration has the point symmetry D_6h.

 Subroutine INISYM returns: Found 24 space group operations
 (whereof 24 operations are pure point group operations),
 and found     1 'primitive' translations

 KPOINTS: Automatic mesh

Automatic generation of k-mesh.
Space group operators:
 irot       det(A)        alpha          n_x          n_y          n_z        tau_x        tau_y        tau_z
    1     1.000000     0.000001     1.000000     0.000000     0.000000     0.000000     0.000000     0.000000
    2    -1.000000     0.000001     1.000000     0.000000     0.000000     0.000000     0.000000     0.000000
    3     1.000000    60.000000     0.000000     0.000000    -1.000000     0.000000     0.000000     0.000000
    4    -1.000000    60.000000     0.000000     0.000000    -1.000000     0.000000     0.000000     0.000000
    5     1.000000   120.000000     0.000000     0.000000    -1.000000     0.000000     0.000000     0.000000
    6    -1.000000   120.000000     0.000000     0.000000    -1.000000     0.000000     0.000000     0.000000
    7     1.000000   180.000000     0.000000     0.000000     1.000000     0.000000     0.000000     0.000000
    8    -1.000000   180.000000     0.000000     0.000000     1.000000     0.000000     0.000000     0.000000
    9     1.000000   120.000000     0.000000     0.000000     1.000000     0.000000     0.000000     0.000000
   10    -1.000000   120.000000     0.000000     0.000000     1.000000     0.000000     0.000000     0.000000
   11     1.000000    60.000000     0.000000     0.000000     1.000000     0.000000     0.000000     0.000000
   12    -1.000000    60.000000     0.000000     0.000000     1.000000     0.000000     0.000000     0.000000
   13     1.000000   180.000000     1.000000     0.000000     0.000000     0.000000     0.000000     0.000000
   14    -1.000000   180.000000     1.000000     0.000000     0.000000     0.000000     0.000000     0.000000
   15     1.000000   180.000000     0.866025    -0.500000     0.000000     0.000000     0.000000     0.000000
   16    -1.000000   180.000000     0.866025    -0.500000     0.000000     0.000000     0.000000     0.000000
   17     1.000000   179.999999     0.500000    -0.866025     0.000000     0.000000     0.000000     0.000000
   18    -1.000000   179.999999     0.500000    -0.866025     0.000000     0.000000     0.000000     0.000000
   19     1.000000   179.999999     0.000000     1.000000     0.000000     0.000000     0.000000     0.000000
   20    -1.000000   179.999999     0.000000     1.000000     0.000000     0.000000     0.000000     0.000000
   21     1.000000   179.999999    -0.500000    -0.866025     0.000000     0.000000     0.000000     0.000000
   22    -1.000000   179.999999    -0.500000    -0.866025     0.000000     0.000000     0.000000     0.000000
   23     1.000000   180.000000     0.866025     0.500000     0.000000     0.000000     0.000000     0.000000
   24    -1.000000   180.000000     0.866025     0.500000     0.000000     0.000000     0.000000     0.000000

 Subroutine IBZKPT returns following result:

 Found     27 irreducible k-points:

 Following reciprocal coordinates:
            Coordinates               Weight
  0.000000  0.000000  0.000000      1.000000
  0.066667  0.000000  0.000000      6.000000
  0.133333  0.000000  0.000000      6.000000
  0.200000  0.000000  0.000000      6.000000
  0.266667  0.000000  0.000000      6.000000
  0.333333  0.000000  0.000000      6.000000
  0.400000  0.000000  0.000000      6.000000
  0.466667  0.000000  0.000000      6.000000
  0.066667  0.066667  0.000000      6.000000
  0.133333  0.066667  0.000000     12.000000
  0.200000  0.066667  0.000000     12.000000
  0.266667  0.066667  0.000000     12.000000
  0.333333  0.066667  0.000000     12.000000
  0.400000  0.066667  0.000000     12.000000
  0.466667  0.066667  0.000000      6.000000
  0.133333  0.133333  0.000000      6.000000
  0.200000  0.133333  0.000000     12.000000
  0.266667  0.133333  0.000000     12.000000
  0.333333  0.133333  0.000000     12.000000
  0.400000  0.133333  0.000000     12.000000
  0.200000  0.200000  0.000000      6.000000
  0.266667  0.200000  0.000000     12.000000
  0.333333  0.200000  0.000000     12.000000
  0.400000  0.200000  0.000000      6.000000
  0.266667  0.266667  0.000000      6.000000
  0.333333  0.266667  0.000000     12.000000
  0.333333  0.333333  0.000000      2.000000

 Following cartesian coordinates:
            Coordinates               Weight
  0.000000  0.000000  0.000000      1.000000
  0.027010  0.015594  0.000000      6.000000
  0.054020  0.031188  0.000000      6.000000
  0.081030  0.046782  0.000000      6.000000
  0.108039  0.062377  0.000000      6.000000
  0.135049  0.077971  0.000000      6.000000
  0.162059  0.093565  0.000000      6.000000
  0.189069  0.109159  0.000000      6.000000
  0.027010  0.046782  0.000000      6.000000
  0.054020  0.062377  0.000000     12.000000
  0.081030  0.077971  0.000000     12.000000
  0.108039  0.093565  0.000000     12.000000
  0.135049  0.109159  0.000000     12.000000
  0.162059  0.124753  0.000000     12.000000
  0.189069  0.140347  0.000000      6.000000
  0.054020  0.093565  0.000000      6.000000
  0.081030  0.109159  0.000000     12.000000
  0.108039  0.124753  0.000000     12.000000
  0.135049  0.140347  0.000000     12.000000
  0.162059  0.155942  0.000000     12.000000
  0.081030  0.140347  0.000000      6.000000
  0.108039  0.155942  0.000000     12.000000
  0.135049  0.171536  0.000000     12.000000
  0.162059  0.187130  0.000000      6.000000
  0.108039  0.187130  0.000000      6.000000
  0.135049  0.202724  0.000000     12.000000
  0.135049  0.233912  0.000000      2.000000

 Subroutine IBZKPT_HF returns following result:

 Found    225 k-points in 1st BZ
 the following    225 k-points will be used (e.g. in the exchange kernel)
 Following reciprocal coordinates:   # in IRBZ
  0.000000  0.000000  0.000000    0.00444444   1 t-inv F
  0.066667  0.000000  0.000000    0.00444444   2 t-inv F
  0.133333  0.000000  0.000000    0.00444444   3 t-inv F
  0.200000  0.000000  0.000000    0.00444444   4 t-inv F
  0.266667  0.000000  0.000000    0.00444444   5 t-inv F
  0.333333  0.000000  0.000000    0.00444444   6 t-inv F
  0.400000  0.000000  0.000000    0.00444444   7 t-inv F
  0.466667  0.000000  0.000000    0.00444444   8 t-inv F
  0.066667  0.066667  0.000000    0.00444444   9 t-inv F
  0.133333  0.066667  0.000000    0.00444444  10 t-inv F
  0.200000  0.066667  0.000000    0.00444444  11 t-inv F
  0.266667  0.066667  0.000000    0.00444444  12 t-inv F
  0.333333  0.066667  0.000000    0.00444444  13 t-inv F
  0.400000  0.066667  0.000000    0.00444444  14 t-inv F
  0.466667  0.066667  0.000000    0.00444444  15 t-inv F
  0.133333  0.133333  0.000000    0.00444444  16 t-inv F
  0.200000  0.133333  0.000000    0.00444444  17 t-inv F
  0.266667  0.133333  0.000000    0.00444444  18 t-inv F
  0.333333  0.133333  0.000000    0.00444444  19 t-inv F
  0.400000  0.133333  0.000000    0.00444444  20 t-inv F
  0.200000  0.200000  0.000000    0.00444444  21 t-inv F
  0.266667  0.200000  0.000000    0.00444444  22 t-inv F
  0.333333  0.200000  0.000000    0.00444444  23 t-inv F
  0.400000  0.200000  0.000000    0.00444444  24 t-inv F
  0.266667  0.266667  0.000000    0.00444444  25 t-inv F
  0.333333  0.266667  0.000000    0.00444444  26 t-inv F
  0.333333  0.333333  0.000000    0.00444444  27 t-inv F
 -0.066667 -0.000000  0.000000    0.00444444   2 t-inv F
 -0.000000  0.066667  0.000000    0.00444444   2 t-inv F
  0.000000 -0.066667  0.000000    0.00444444   2 t-inv F
 -0.066667  0.066667  0.000000    0.00444444   2 t-inv F
  0.066667 -0.066667  0.000000    0.00444444   2 t-inv F
 -0.133333 -0.000000  0.000000    0.00444444   3 t-inv F
 -0.000000  0.133333  0.000000    0.00444444   3 t-inv F
  0.000000 -0.133333  0.000000    0.00444444   3 t-inv F
 -0.133333  0.133333  0.000000    0.00444444   3 t-inv F
  0.133333 -0.133333  0.000000    0.00444444   3 t-inv F
 -0.200000 -0.000000  0.000000    0.00444444   4 t-inv F
 -0.000000  0.200000  0.000000    0.00444444   4 t-inv F
  0.000000 -0.200000  0.000000    0.00444444   4 t-inv F
 -0.200000  0.200000  0.000000    0.00444444   4 t-inv F
  0.200000 -0.200000  0.000000    0.00444444   4 t-inv F
 -0.266667 -0.000000  0.000000    0.00444444   5 t-inv F
 -0.000000  0.266667  0.000000    0.00444444   5 t-inv F
  0.000000 -0.266667  0.000000    0.00444444   5 t-inv F
 -0.266667  0.266667  0.000000    0.00444444   5 t-inv F
  0.266667 -0.266667  0.000000    0.00444444   5 t-inv F
 -0.333333 -0.000000  0.000000    0.00444444   6 t-inv F
 -0.000000  0.333333  0.000000    0.00444444   6 t-inv F
  0.000000 -0.333333  0.000000    0.00444444   6 t-inv F
 -0.333333  0.333333  0.000000    0.00444444   6 t-inv F
  0.333333 -0.333333  0.000000    0.00444444   6 t-inv F
 -0.400000 -0.000000  0.000000    0.00444444   7 t-inv F
 -0.000000  0.400000  0.000000    0.00444444   7 t-inv F
  0.000000 -0.400000  0.000000    0.00444444   7 t-inv F
 -0.400000  0.400000  0.000000    0.00444444   7 t-inv F
  0.400000 -0.400000  0.000000    0.00444444   7 t-inv F
 -0.466667 -0.000000  0.000000    0.00444444   8 t-inv F
 -0.000000  0.466667  0.000000    0.00444444   8 t-inv F
  0.000000 -0.466667  0.000000    0.00444444   8 t-inv F
[...]
  0.266667 -0.533333  0.000000    0.00444444  25 t-inv F
 -0.533333  0.266667  0.000000    0.00444444  25 t-inv F
  0.533333 -0.266667  0.000000    0.00444444  25 t-inv F
[...]
  weight for this iteration     100.00

 eigenvalues of (default mixing * dielectric matrix)
  average eigenvalue GAMMA=   1.9627
  1.0264  2.2008  2.6608

[...]

--------------------------------------- Iteration     17(   5)  ---------------------------------------

 eigenvalue-minimisations  :  2075
 total energy-change (2. order) : 0.3365164E-05  (-0.4036663E-06)
 number of electron       7.9999997 magnetization
 augmentation part        0.1916058 magnetization

 Free energy of the ion-electron system (eV)
  alpha Z        PSCENC =         2.07633087
  Ewald energy   TEWEN  =      2206.05617985
  -Hartree energ DENC   =     -2447.98070699
  -exchange      EXHF   =         0.00000000
  -V(xc)+E(xc)   XCENC  =        27.52643942
  PAW double counting   =       833.71641778     -835.08336646
  entropy T*S    EENTRO =        -0.00100300
  eigenvalues    EBANDS =       -99.05200046
  atomic energy  EATOM  =       294.29684335
  Solvation  Ediel_sol  =         0.00000000
  free energy    TOTEN  =       -18.44486564 eV

  energy without entropy =      -18.44386264  energy(sigma->0) =      -18.44436414

 average (electrostatic) potential at core
  the test charge radii are     0.6991
  (the norm of the test charge is              1.0000)
       1 -58.6968       2 -58.6967

 E-fermi :  -3.2588     XC(G=0):  -1.4837     alpha+bet : -1.2666

[...]

 k-point    27 :       0.3333    0.3333    0.0000
  band No.  band energies     occupation
      1     -15.8378      2.00000
      2     -15.8378      2.00000
      3     -13.7806      2.00000
      4      -3.2589      1.00101
      5      -3.2588      0.99899
      6       7.3539      0.00000
      7       9.6129      0.00000
      8       9.6132      0.00000
      9      10.2247      0.00000
     10      11.5674      0.00000
     11      11.5686      0.00000
     12      11.9045      0.00000
     13      11.9048      0.00000
     14      11.9360      0.00000
     15      12.0019      0.00000
     16      12.1250      0.00000
     17      12.1252      0.00000
     18      12.2482      0.00000
     19      12.2498      0.00000
     20      12.3697      0.00000
     21      12.5505      0.00000
     22      12.7132      0.00000
     23      12.7147      0.00000
     24      13.0776      0.00000
     25      13.0782      0.00000
     26      13.1436      0.00000
     27      13.4816      0.00000
     28      13.6508      0.00000
     29      13.6518      0.00000
     30      14.1983      0.00000
     31      14.3265      0.00000
     32      14.3268      0.00000
     33      14.8266      0.00000
     34      14.9483      0.00000
     35      14.9494      0.00000
     36      15.5301      0.00000
     37      15.9302      0.00000
     38      15.9307      0.00000
     39      16.5583      0.00000
     40      16.5896      0.00000

 soft charge-density along one line, spin component           1
         0         1         2         3         4         5         6         7         8         9
 total charge-density along one line

------------------------ aborting loop because EDIFF is reached ----------------------------------------

  FORCE on cell =-STRESS in cart. coord.  units (eV):
  Direction    XX          YY          ZZ          XY          YZ          ZX
  Alpha Z     2.07633     2.07633     2.07633
  Ewald    2474.66556  2474.66556 -2743.27501    -0.00001     0.00000     0.00000
  Hartree  2436.63883  2436.63883 -2425.29796    -0.00000     0.00000    -0.00000
  E(xc)     -29.69166   -29.69166   -30.80438    -0.00000    -0.00000     0.00000
  Local   -4995.74305 -4995.74306  5067.18773    -0.00001    -0.00000     0.00000
  n-local    -6.84050    -7.37180    -6.49042    -0.31795    -0.00331    -0.00836
  augment    -0.77634    -0.77634    -0.71635     0.00001    -0.00000     0.00000
  Kinetic   117.93581   121.94612   137.30515     3.15543    -0.04502    -0.16176
  Fock        0.00000     0.00000     0.00000     0.00000     0.00000     0.00000
  Total       0.00448     0.00448    -0.01490    -0.00000     0.00000     0.00000
  in kB       0.04537     0.04537    -0.15086    -0.00000     0.00000     0.00000

 VOLUME and BASIS-vectors are now :
  energy-cutoff  :      500.00
  volume of cell :      158.25
      direct lattice vectors                 reciprocal lattice vectors
     2.468234109  0.000000000  0.000000000     0.405147954  0.233912293  0.000000000
    -1.234117093  2.137553397  0.000000000     0.000000000  0.467824571  0.000000000
     0.000000000  0.000000000 29.995100021     0.000000000  0.000000000  0.033338779

  length of vectors
     2.468234109  2.468234090 29.995100021     0.467824567  0.467824571  0.033338779

 FORCES acting on ions
    electron-ion (+dipol)            ewald-force                    non-local-force                 convergence-correction
   0.109E-05 0.213E-05 0.489E+01   -.275E-05 -.506E-05 -.505E+01   -.278E-16 -.555E-16 0.404E+00   -.670E-07 -.200E-08 0.212E-01
   0.129E-04 -.211E-05 -.489E+01   0.275E-05 0.506E-05 0.505E+01   0.000E+00 0.555E-16 -.404E+00   0.440E-07 0.195E-08 0.202E-01
   0.140E-04 0.188E-07 0.598E-05   0.115E-13 0.885E-14 0.000E+00   -.278E-16 0.000E+00 0.000E+00   -.230E-07 -.524E-10 0.414E-01

 POSITION                                       TOTAL-FORCE (eV/Angst)
     -0.00000      1.42504     14.98255        -0.000000      0.000000      0.251652
      1.23412      0.71252     14.99755         0.000000      0.000000     -0.251652
    total drift:                                0.000014      0.000000      0.041411

  FREE ENERGIE OF THE ION-ELECTRON SYSTEM (eV)
  free  energy   TOTEN  =       -18.44486564 eV

  energy  without entropy=      -18.44386264  energy(sigma->0) =      -18.44436414

 d Force =-0.2559185E-05[-0.755E-02, 0.754E-02]  d Energy = 0.6266972E-06-0.319E-05
 d Force =-0.3082105E-07[ 0.151E+00,-0.151E+00]  d Ewald  =-0.3082869E-07 0.773E-11

 Finite differences progress:
  Degree of freedom:   8/  8
  Displacement:        2/  2
  Total:              16/ 16

  ELASTIC MODULI  (kBar)
 Direction    XX          YY          ZZ          XY          YZ          ZX
 XX        1144.4330    229.6370     19.2609     -0.0000      0.0000      0.0000
 YY         231.8468   1146.4415      3.9549     -0.0000      0.0000      0.0000
 ZZ           0.2198      0.2198      1.8781     -0.0000     -0.0000     -0.0000
 XY           0.2847      0.2940    -19.7601    455.8388      0.0000      0.0000
 YZ          -0.0911      0.0993      0.3537     -0.0000      0.0339     -0.0000
 ZX           0.0930     -0.0058     -0.0743      0.0000      0.0000     -0.0069

  SYMMETRIZED ELASTIC MODULI (kBar)
 Direction    XX          YY          ZZ          XY          YZ          ZX
 XX        1144.6829    231.4963      5.9139     -0.0000     -0.0000      0.0000
 YY         231.4963   1144.6828      5.9139     -0.0000      0.0000      0.0000
 ZZ           5.9139      5.9139      1.8781     -0.0000     -0.0000     -0.0000
 XY          -0.0000     -0.0000     -0.0000    456.5932     -0.0000      0.0000
 YZ           0.0000      0.0000     -0.0000     -0.0000      0.0136     -0.0000
 ZX           0.0000     -0.0000     -0.0000      0.0000     -0.0000      0.0135

 INTERNAL STRAIN TENSORS FROM STRAINED CELLS

 INTERNAL STRAIN TENSOR FOR ION    1 for displacements in x,y,z  (eV/Angst):
          X           Y           Z          XY          YZ          ZX
  x     0.00000    -0.00000    -0.00000    -6.26160    -0.00000     0.00000
  y    -6.37658     6.43380     0.00000     0.00036     0.00237    -0.00221
  z     0.00000     0.00000    -0.00000     0.00000     0.00061    -0.00000

[...]

 INTERNAL STRAIN TENSORS FROM DISPLACED ATOMS

[...]

 INTERNAL STRAIN TENSOR FOR ION    2 for displacements in x,y,z  (eV/Angst):
          X           Y           Z          XY          YZ          ZX
  x    -0.00000     0.00000    -0.00000     7.06765     0.00000     0.00000
  y     7.06765    -7.06765     0.00000     0.00000     0.00000     0.00000
  z     0.00000     0.00000     0.00000     0.00000     0.00000     0.00000

 Eigenvectors and eigenvalues of the dynamical matrix

   1 f  =   44.437342 THz   279.208054 2PiTHz 1482.270130 cm-1   183.778140 meV
             X         Y         Z           dx          dy          dz
     -0.000000  1.425036 14.997550     0.660990   -0.251182   -0.000000
      1.234117  0.712518 14.997550    -0.660990    0.251182   -0.000000

[...]

   5 f  =    0.000000 THz     0.000001 2PiTHz    0.000007 cm-1     0.000001 meV
             X         Y         Z           dx          dy          dz
     -0.000000  1.425036 14.997550     0.660957   -0.162706    0.191475
      1.234117  0.712518 14.997550     0.660957   -0.162706    0.191475

   6 f/i=    0.000000 THz     0.000001 2PiTHz    0.000004 cm-1     0.000000 meV
             X         Y         Z           dx          dy          dz
     -0.000000  1.425036 14.997550    -0.175754    0.085723    0.679531
      1.234117  0.712518 14.997550    -0.175754    0.085723    0.679531

 ELASTIC MODULI CONTR FROM IONIC RELAXATION (kBar)
 Direction    XX          YY          ZZ          XY          YZ          ZX
 XX         -10.4223     10.4223     -0.0000      0.0000      0.0000      0.0000
 YY          10.4223    -10.4223      0.0000      0.0000      0.0000      0.0000
 ZZ          -0.0000      0.0000     -0.0000      0.0000      0.0000      0.0000
 XY           0.0000      0.0000      0.0000    -10.4223      0.0000      0.0000
 YZ           0.0000      0.0000      0.0000      0.0000      0.0000      0.0000
 ZX           0.0000      0.0000      0.0000      0.0000      0.0000      0.0000

 TOTAL ELASTIC MODULI (kBar)
 Direction    XX          YY          ZZ          XY          YZ          ZX
 XX        1134.2606    241.9186      5.9139     -0.0000     -0.0000      0.0000
 YY         241.9186   1134.2605      5.9139     -0.0000      0.0000      0.0000
 ZZ           5.9139      5.9139      1.8781     -0.0000     -0.0000     -0.0000
 XY          -0.0000     -0.0000     -0.0000    446.1710     -0.0000      0.0000
 YZ           0.0000      0.0000     -0.0000     -0.0000      0.0136     -0.0000
 ZX           0.0000     -0.0000     -0.0000      0.0000     -0.0000      0.0135

  LATTYP: Found a hexagonal cell.
 ALAT       =     2.4682340515
 C/A-ratio  =    12.1524536957

  Lattice vectors:

 A1 = (   2.4682341087,   0.0000000000,   0.0000000000)
 A2 = (  -1.2341170932,   2.1375533970,   0.0000000000)
 A3 = (   0.0000000000,   0.0000000000,  29.9951000214)

Analysis of symmetry for initial positions (statically):
 Subroutine PRICEL returns:
 Original cell was already a primitive cell.

[...]

The static configuration has the point symmetry D_6h.

Analysis of symmetry for dynamics (positions and initial velocities):
 Subroutine PRICEL returns:
 Original cell was already a primitive cell.

 Routine SETGRP: Setting up the symmetry group for a
 hexagonal supercell.

 Subroutine GETGRP returns: Found 24 space group operations
 (whereof 24 operations were pure point group operations)
 out of a pool of 24 trial point group operations.

The dynamic configuration has the point symmetry D_6h.

 Subroutine INISYM returns: Found 24 space group operations
 (whereof 24 operations are pure point group operations),
 and found     1 'primitive' translations

 KPOINTS: Automatic mesh

Automatic generation of k-mesh.
Space group operators:
 irot       det(A)        alpha          n_x          n_y          n_z        tau_x        tau_y        tau_z
    1     1.000000     0.000001     1.000000     0.000000     0.000000     0.000000     0.000000     0.000000
    2    -1.000000     0.000001     1.000000     0.000000     0.000000     0.000000     0.000000     0.000000
    3     1.000000    60.000000     0.000000     0.000000    -1.000000     0.000000     0.000000     0.000000
    4    -1.000000    60.000000     0.000000     0.000000    -1.000000     0.000000     0.000000     0.000000
    5     1.000000   120.000000     0.000000     0.000000    -1.000000     0.000000     0.000000     0.000000
    6    -1.000000   120.000000     0.000000     0.000000    -1.000000     0.000000     0.000000     0.000000
    7     1.000000   180.000000     0.000000     0.000000     1.000000     0.000000     0.000000     0.000000
    8    -1.000000   180.000000     0.000000     0.000000     1.000000     0.000000     0.000000     0.000000
    9     1.000000   120.000000     0.000000     0.000000     1.000000     0.000000     0.000000     0.000000
   10    -1.000000   120.000000     0.000000     0.000000     1.000000     0.000000     0.000000     0.000000
   11     1.000000    60.000000     0.000000     0.000000     1.000000     0.000000     0.000000     0.000000
   12    -1.000000    60.000000     0.000000     0.000000     1.000000     0.000000     0.000000     0.000000
   13     1.000000   180.000000     1.000000     0.000000     0.000000     0.000000     0.000000     0.000000
   14    -1.000000   180.000000     1.000000     0.000000     0.000000     0.000000     0.000000     0.000000
   15     1.000000   180.000000     0.866025    -0.500000     0.000000     0.000000     0.000000     0.000000
   16    -1.000000   180.000000     0.866025    -0.500000     0.000000     0.000000     0.000000     0.000000
   17     1.000000   179.999999     0.500000    -0.866025     0.000000     0.000000     0.000000     0.000000
   18    -1.000000   179.999999     0.500000    -0.866025     0.000000     0.000000     0.000000     0.000000
   19     1.000000   179.999999     0.000000     1.000000     0.000000     0.000000     0.000000     0.000000
   20    -1.000000   179.999999     0.000000     1.000000     0.000000     0.000000     0.000000     0.000000
   21     1.000000   179.999999    -0.500000    -0.866025     0.000000     0.000000     0.000000     0.000000
   22    -1.000000   179.999999    -0.500000    -0.866025     0.000000     0.000000     0.000000     0.000000
   23     1.000000   180.000000     0.866025     0.500000     0.000000     0.000000     0.000000     0.000000
   24    -1.000000   180.000000     0.866025     0.500000     0.000000     0.000000     0.000000     0.000000

 Subroutine IBZKPT returns following result:

 Found     27 irreducible k-points:

 Following reciprocal coordinates:
            Coordinates               Weight
  0.000000  0.000000  0.000000      1.000000
  0.066667  0.000000  0.000000      6.000000
  0.133333  0.000000  0.000000      6.000000
  0.200000  0.000000  0.000000      6.000000
  0.266667  0.000000  0.000000      6.000000
  0.333333  0.000000  0.000000      6.000000
  0.400000  0.000000  0.000000      6.000000
  0.466667  0.000000  0.000000      6.000000
  0.066667  0.066667  0.000000      6.000000
  0.133333  0.066667  0.000000     12.000000
  0.200000  0.066667  0.000000     12.000000
  0.266667  0.066667  0.000000     12.000000
  0.333333  0.066667  0.000000     12.000000
  0.400000  0.066667  0.000000     12.000000
  0.466667  0.066667  0.000000      6.000000
  0.133333  0.133333  0.000000      6.000000
  0.200000  0.133333  0.000000     12.000000
  0.266667  0.133333  0.000000     12.000000
  0.333333  0.133333  0.000000     12.000000
  0.400000  0.133333  0.000000     12.000000
  0.200000  0.200000  0.000000      6.000000
  0.266667  0.200000  0.000000     12.000000
  0.333333  0.200000  0.000000     12.000000
  0.400000  0.200000  0.000000      6.000000
  0.266667  0.266667  0.000000      6.000000
  0.333333  0.266667  0.000000     12.000000
  0.333333  0.333333  0.000000      2.000000

 Following cartesian coordinates:
            Coordinates               Weight
  0.000000  0.000000  0.000000      1.000000
  0.027010  0.015594  0.000000      6.000000
  0.054020  0.031188  0.000000      6.000000
  0.081030  0.046782  0.000000      6.000000
  0.108039  0.062377  0.000000      6.000000
  0.135049  0.077971  0.000000      6.000000
  0.162059  0.093565  0.000000      6.000000
  0.189069  0.109159  0.000000      6.000000
  0.027010  0.046782  0.000000      6.000000
  0.054020  0.062377  0.000000     12.000000
  0.081030  0.077971  0.000000     12.000000
  0.108039  0.093565  0.000000     12.000000
  0.135049  0.109159  0.000000     12.000000
  0.162059  0.124753  0.000000     12.000000
  0.189069  0.140347  0.000000      6.000000
  0.054020  0.093565  0.000000      6.000000
  0.081030  0.109159  0.000000     12.000000
  0.108039  0.124753  0.000000     12.000000
  0.135049  0.140347  0.000000     12.000000
  0.162059  0.155942  0.000000     12.000000
  0.081030  0.140347  0.000000      6.000000
  0.108039  0.155942  0.000000     12.000000
  0.135049  0.171536  0.000000     12.000000
  0.162059  0.187130  0.000000      6.000000
  0.108039  0.187130  0.000000      6.000000
  0.135049  0.202724  0.000000     12.000000
  0.135049  0.233912  0.000000      2.000000